Route #1: 17 26 7 53 14 59 46 34 67
Route #2: 58 11 66 65 38 10 31 39 72 12
Route #3: 40 9 25 55 18 50 32 44 3 16 51
Route #4: 33 63 49 24 23 56 41 43 42 64 22 1 73
Route #5: 62 28 61 21 69 71 60 70 20 37 36 47 48
Route #6: 27 52 8 35 19 54 13 57 15 5 29 45 4
Route #7: 6 2 74 30 68 75
Cost 742